Version identifier: 22.1.0.0 | 2022-03-09 | 1a383f8ce
CPXPARAM_Threads                                 1
CPXPARAM_MIP_Strategy_VariableSelect             3
CPXPARAM_TimeLimit                               600
Tried aggregator 1 time.
MIP Presolve eliminated 9 rows and 0 columns.
MIP Presolve modified 3 coefficients.
Reduced MIP has 1816 rows, 7501 columns, and 81406 nonzeros.
Reduced MIP has 7500 binaries, 0 generals, 0 SOSs, and 0 indicators.
Presolve time = 0.03 sec. (26.71 ticks)
Found incumbent of value 25.000000 after 0.10 sec. (75.92 ticks)
Probing time = 0.01 sec. (3.98 ticks)
Tried aggregator 1 time.
Detecting symmetries...
Reduced MIP has 1816 rows, 7501 columns, and 81406 nonzeros.
Reduced MIP has 7500 binaries, 0 generals, 0 SOSs, and 0 indicators.
Presolve time = 0.04 sec. (32.60 ticks)
Probing time = 0.01 sec. (3.98 ticks)
Clique table members: 300.
MIP emphasis: balance optimality and feasibility.
MIP search method: dynamic search.
Parallel mode: none, using 1 thread.
Root relaxation solution time = 1.70 sec. (1777.80 ticks)

        Nodes                                         Cuts/
   Node  Left     Objective  IInf  Best Integer    Best Bound    ItCnt     Gap

*     0+    0                           25.0000        0.0000           100.00%
      0     0        0.0000  1273       25.0000        0.0000     5328  100.00%
*     0+    0                            1.0000        0.0000           100.00%
Detecting symmetries...
      0     2        0.0000   550        1.0000        0.0000     5328  100.00%
Elapsed time = 22.39 sec. (23758.62 ticks, tree = 0.01 MB, solutions = 2)
      1     3        0.0000  1248        1.0000        0.0000    15705  100.00%
      2     4        0.0000   903        1.0000        0.0000    20941  100.00%
      3     5       -0.0000  1002        1.0000        0.0000    27402  100.00%
      4     6        0.0000   903        1.0000        0.0000    27404  100.00%
      5     7        0.0000   864        1.0000        0.0000    32230  100.00%
      6     8        0.0000   876        1.0000        0.0000    34413  100.00%
      7     9        0.0000   865        1.0000        0.0000    34524  100.00%
      8    10        0.0000  1481        1.0000        0.0000    36234  100.00%
      9    11        0.0000   896        1.0000        0.0000    36441  100.00%
     10    12        0.0000   861        1.0000        0.0000    36461  100.00%
Elapsed time = 38.20 sec. (41241.29 ticks, tree = 0.11 MB, solutions = 2)
     12    14        0.0000  1319        1.0000        0.0000    42369  100.00%
     14    16        0.0000   885        1.0000        0.0000    42744  100.00%
     15    17       -0.0000   899        1.0000        0.0000    49980  100.00%
     16    18        0.0000   889        1.0000        0.0000    54717  100.00%
     18    20        0.0000   872        1.0000        0.0000    63831  100.00%
     20    22        0.0000   762        1.0000        0.0000    67638  100.00%
     22    24        0.0000  1030        1.0000        0.0000    72335  100.00%
     23    25        0.0000  1140        1.0000        0.0000    75556  100.00%
     24    26        0.0000   699        1.0000        0.0000    79807  100.00%
     25    27        0.0000  1105        1.0000        0.0000    83287  100.00%
Elapsed time = 59.22 sec. (64862.37 ticks, tree = 0.35 MB, solutions = 2)
     26    28       -0.0000   735        1.0000        0.0000    85682  100.00%
     28    30       -0.0000   731        1.0000        0.0000    92189  100.00%
     29    31        0.0000   865        1.0000        0.0000    96102  100.00%
     30    32        0.0000  1118        1.0000        0.0000   100489  100.00%
     32    34        0.0000   711        1.0000        0.0000   103647  100.00%
     34    36        0.0000  1111        1.0000        0.0000   109785  100.00%
     35    37        0.0000  1093        1.0000        0.0000   113291  100.00%
     36    38       -0.0000   774        1.0000        0.0000   118054  100.00%
     37    39        0.0000   816        1.0000        0.0000   121505  100.00%
     38    40       -0.0000  1122        1.0000        0.0000   126409  100.00%
Elapsed time = 92.58 sec. (98445.54 ticks, tree = 0.58 MB, solutions = 2)
     39    41        0.0000   884        1.0000        0.0000   130127  100.00%
     40    42       -0.0000   696        1.0000        0.0000   137081  100.00%
     42    44        0.0000  1043        1.0000        0.0000   144364  100.00%
     43    45        0.0000   762        1.0000        0.0000   156181  100.00%
     45    47        0.0000  1075        1.0000        0.0000   163897  100.00%
     46    48        0.0000   890        1.0000        0.0000   167367  100.00%
     47    49       -0.0000   816        1.0000        0.0000   171676  100.00%
     49    51        0.0000   824        1.0000        0.0000   174001  100.00%
     50    52       -0.0000  1096        1.0000        0.0000   179116  100.00%
     51    53        0.0000  1080        1.0000        0.0000   183453  100.00%
Elapsed time = 111.56 sec. (118658.15 ticks, tree = 0.77 MB, solutions = 2)
     53    55        0.0000   845        1.0000        0.0000   187423  100.00%
     54    56        0.0000  1119        1.0000        0.0000   191707  100.00%
     56    58        0.0000  1113        1.0000        0.0000   197586  100.00%
     58    60       -0.0000  1058        1.0000        0.0000   203126  100.00%
     60    62        0.0000  1081        1.0000        0.0000   208223  100.00%
     62    64        0.0000  1076        1.0000        0.0000   213270  100.00%
     64    66        0.0000  1110        1.0000        0.0000   215675  100.00%
     66    68        0.0000  1050        1.0000        0.0000   219813  100.00%
     68    70        0.0000  1050        1.0000        0.0000   222472  100.00%
     70    72        0.0000  1052        1.0000        0.0000   225792  100.00%
Elapsed time = 126.47 sec. (134640.69 ticks, tree = 1.09 MB, solutions = 2)
     71    73        0.0000  1090        1.0000        0.0000   228829  100.00%
     73    75        0.0000  1051        1.0000        0.0000   232396  100.00%
     75    77        0.0000  1045        1.0000        0.0000   235518  100.00%
     77    79       -0.0000  1100        1.0000        0.0000   238240  100.00%
     79    81        0.0000  1043        1.0000        0.0000   241865  100.00%
     81    83       -0.0000  1059        1.0000        0.0000   246591  100.00%
     83    85       -0.0000  1058        1.0000        0.0000   249179  100.00%
     85    87       -0.0000  1041        1.0000        0.0000   251137  100.00%
     87    89        0.0000  1034        1.0000        0.0000   254354  100.00%
     89    91        0.0000  1028        1.0000        0.0000   258280  100.00%
Elapsed time = 139.20 sec. (148569.73 ticks, tree = 1.43 MB, solutions = 2)
     90    92       -0.0000  1104        1.0000        0.0000   261742  100.00%
     92    94        0.0000  1104        1.0000        0.0000   265664  100.00%
     94    96        0.0000  1099        1.0000        0.0000   268857  100.00%
     96    98       -0.0000  1058        1.0000        0.0000   271423  100.00%
     98   100        0.0000  1068        1.0000        0.0000   277835  100.00%
    101   103        0.0000  1061        1.0000        0.0000   279170  100.00%
    103   105       -0.0000  1067        1.0000        0.0000   282152  100.00%
    104   106       -0.0000  1041        1.0000        0.0000   288848  100.00%
    106   108        0.0000  1027        1.0000        0.0000   292120  100.00%
    108   110        0.0000  1002        1.0000        0.0000   293796  100.00%
Elapsed time = 152.11 sec. (162431.21 ticks, tree = 1.76 MB, solutions = 2)
    110   112        0.0000  1060        1.0000        0.0000   299363  100.00%
    112   114       -0.0000  1055        1.0000        0.0000   304379  100.00%
    115   117        0.0000  1030        1.0000        0.0000   309902  100.00%
    116   118       -0.0000  1021        1.0000        0.0000   313652  100.00%
    118   120        0.0000  1021        1.0000        0.0000   315125  100.00%
    120   122        0.0000  1037        1.0000        0.0000   322805  100.00%
    122   124       -0.0000  1053        1.0000        0.0000   327187  100.00%
    124   126        0.0000  1032        1.0000        0.0000   328905  100.00%
    126   128       -0.0000  1030        1.0000        0.0000   333512  100.00%
    128   130        0.0000  1071        1.0000        0.0000   338363  100.00%
Elapsed time = 166.58 sec. (177566.49 ticks, tree = 2.10 MB, solutions = 2)
    130   132       -0.0000  1051        1.0000        0.0000   343348  100.00%
    132   134       -0.0000  1103        1.0000        0.0000   348617  100.00%
    135   137        0.0000  1073        1.0000        0.0000   354503  100.00%
    137   139       -0.0000  1038        1.0000        0.0000   356097  100.00%
    138   140        0.0000  1046        1.0000        0.0000   359996  100.00%
    140   142       -0.0000  1055        1.0000        0.0000   364824  100.00%
    142   144        0.0000  1056        1.0000        0.0000   365591  100.00%
    143   145       -0.0000  1087        1.0000        0.0000   369402  100.00%
    144   146        0.0000  1049        1.0000        0.0000   374665  100.00%
    145   147       -0.0000  1038        1.0000        0.0000   378153  100.00%
Elapsed time = 181.04 sec. (192306.82 ticks, tree = 2.39 MB, solutions = 2)
    147   149       -0.0000  1064        1.0000        0.0000   383106  100.00%
    150   152        0.0000  1054        1.0000        0.0000   388508  100.00%
    153   155        0.0000  1049        1.0000        0.0000   394113  100.00%
    155   157       -0.0000  1022        1.0000        0.0000   398213  100.00%
    157   159        0.0000  1034        1.0000        0.0000   402335  100.00%
    159   161        0.0000  1045        1.0000        0.0000   404540  100.00%
    160   162        0.0000  1009        1.0000        0.0000   409251  100.00%
    162   164       -0.0000  1014        1.0000        0.0000   413640  100.00%
    164   166        0.0000  1006        1.0000        0.0000   415610  100.00%
    170   172        0.0000   999        1.0000        0.0000   429939  100.00%
Elapsed time = 212.25 sec. (224319.11 ticks, tree = 2.82 MB, solutions = 2)
    176   178        0.0000   983        1.0000        0.0000   441182  100.00%
    183   185        0.0033  1118        1.0000        0.0000   452293  100.00%
    185   187        0.0002  1087        1.0000        0.0000   503914  100.00%
    187   189        0.0000   681        1.0000        0.0000   515076  100.00%
    190   192        0.0000   536        1.0000        0.0000   549695  100.00%
    191   193       -0.0000   573        1.0000        0.0000   566654  100.00%
    193   195       -0.0000   526        1.0000        0.0000   577254  100.00%
    194   196       -0.0000   583        1.0000        0.0000   593860  100.00%
    197   199        0.0000   608        1.0000        0.0000   628141  100.00%
    201   203       -0.0000   573        1.0000        0.0000   652522  100.00%
Elapsed time = 272.50 sec. (285277.91 ticks, tree = 3.29 MB, solutions = 2)
    205   207        0.0003   997        1.0000        0.0000   684696  100.00%
    209   211       -0.0000   532        1.0000        0.0000   736132  100.00%
    211   213        0.0000   546        1.0000        0.0000   749778  100.00%
    214   216        0.0003  1072        1.0000        0.0000   771282  100.00%
    217   219        0.0005  1028        1.0000        0.0000   806390  100.00%
    220   222       -0.0000   594        1.0000        0.0000   821276  100.00%
    223   225       -0.0000   472        1.0000        0.0000   856908  100.00%
    225   227        0.0004   978        1.0000        0.0000   888882  100.00%
    228   230        0.0022  1026        1.0000        0.0000   920791  100.00%
    232   234       -0.0000   462        1.0000        0.0000   963986  100.00%
Elapsed time = 334.09 sec. (345434.75 ticks, tree = 3.82 MB, solutions = 2)
    235   237        0.0000   449        1.0000        0.0000  1013779  100.00%
    236   238       -0.0000   477        1.0000        0.0000  1043288  100.00%
    237   239        0.0004  1058        1.0000        0.0000  1070083  100.00%
    239   241        0.0000  1043        1.0000        0.0000  1081223  100.00%
    241   243        0.0005  1035        1.0000        0.0000  1090067  100.00%
    245   247        0.0000   536        1.0000        0.0000  1099433  100.00%
    248   250        0.0004   971        1.0000        0.0000  1116677  100.00%
    250   252       -0.0000   526        1.0000        0.0000  1127187  100.00%
    253   255       -0.0000   498        1.0000        0.0000  1133364  100.00%
    257   259        0.0000   528        1.0000        0.0000  1139234  100.00%
Elapsed time = 387.52 sec. (404041.35 ticks, tree = 4.23 MB, solutions = 2)
    260   262        0.0000  1035        1.0000        0.0000  1152173  100.00%
    270   272        0.0000  1057        1.0000        0.0000  1164284  100.00%
    280   282        0.0000  1073        1.0000        0.0000  1173998  100.00%
    291   293        0.0000  1073        1.0000        0.0000  1181879  100.00%
    302   304        0.0000  1075        1.0000        0.0000  1190807  100.00%
    306   308        0.0000  1076        1.0000        0.0000  1214103  100.00%
    310   312        0.5000   372        1.0000        0.0000  1252250  100.00%
    319   321        0.0007  1081        1.0000        0.0000  1274491  100.00%
    325   327        0.0002  1081        1.0000        0.0000  1302684  100.00%
    331   333        0.0027   976        1.0000        0.0000  1316151  100.00%
Elapsed time = 432.73 sec. (449094.37 ticks, tree = 5.49 MB, solutions = 2)
    337   339        0.0000  1097        1.0000        0.0000  1332894  100.00%
    342   344        0.0000  1091        1.0000        0.0000  1340986  100.00%
    351   353        0.0002  1104        1.0000        0.0000  1371099  100.00%
    354   356        0.0004  1080        1.0000        0.0000  1397699  100.00%
    361   363        0.0011   958        1.0000        0.0000  1434431  100.00%
    366   368        0.0004  1078        1.0000        0.0000  1464591  100.00%
    374   376        0.0068  1001        1.0000        0.0000  1475403  100.00%
    382   384        0.0001  1094        1.0000        0.0000  1483974  100.00%
    389   391        0.0068  1045        1.0000        0.0000  1496269  100.00%
    396   398        0.0001  1079        1.0000        0.0000  1507634  100.00%
Elapsed time = 478.66 sec. (494091.28 ticks, tree = 6.60 MB, solutions = 2)
    404   406        0.0068  1020        1.0000        0.0000  1520685  100.00%
    412   414        0.0004  1065        1.0000        0.0000  1546623  100.00%
    420   422        0.0001  1107        1.0000        0.0000  1553211  100.00%
    428   430        0.0068  1032        1.0000        0.0000  1563567  100.00%
    436   438        0.0030  1007        1.0000        0.0000  1580571  100.00%
    444   446        0.0004  1067        1.0000        0.0000  1604875  100.00%
    452   454        0.0068  1017        1.0000        0.0000  1612708  100.00%
    459   461        0.0001  1078        1.0000        0.0000  1627381  100.00%
    463   465        0.0001  1079        1.0000        0.0000  1632712  100.00%
    467   469        0.0002  1087        1.0000        0.0000  1652411  100.00%
Elapsed time = 523.93 sec. (539378.59 ticks, tree = 7.79 MB, solutions = 2)
    474   476        0.0002  1057        1.0000        0.0000  1664134  100.00%
    482   484        0.0002  1053        1.0000        0.0000  1672034  100.00%
    486   488        0.0002  1089        1.0000        0.0000  1679308  100.00%
*   488+  488                            0.6667        0.0000           100.00%
*   488+  470                            0.5000        0.0000           100.00%
    488   472        0.0000   592        0.5000        0.0000  1705731  100.00%
    489   473        0.0004  1039        0.5000        0.0000  1741538  100.00%
    490   474        0.0002   983        0.5000        0.0000  1764883  100.00%
    495   479        0.0028   939        0.5000        0.0000  1791103  100.00%
Starting limited solution polishing.
    503   487        0.0004   965        0.5000        0.0000  1798317  100.00%
    511   495        0.0004   956        0.5000        0.0000  1813626  100.00%
    520   504        0.0004   958        0.5000        0.0000  1822251  100.00%
Elapsed time = 597.58 sec. (607177.10 ticks, tree = 8.42 MB, solutions = 4)

Root node processing (before b&c):
  Real time             =   22.31 sec. (23684.97 ticks)
Sequential b&c:
  Real time             =  577.69 sec. (585876.62 ticks)
                          ------------
Total (root+branch&cut) =  600.00 sec. (609561.59 ticks)
Primal:	0.5
Dual:	0
Status:	Feasible
Time:	599.56
Sequence:
	0
	1
	10
	15
	9
	6
	0
	3
	11
	3
	0
	3
	18
	6
	24
	15
	10
	1
	18
	19
	14
	8
	12
	3
	0
	19
	12
	8
	0
	4
	12
	8
	13
	4
	0
	3
	11
	17
	13
	7
	1
	0
	3
	0
	19
	12
	19
	18
	3
	14
	19
	0
	19
	18
	8
	12
	19
	0
	4
	0
	3
	0
	6
	17
	6
	9
	15
	10
	15
	10
	15
	10
	1
	10
	6
	9
	15
	9
	15
	10
	1
	17
	13
	8
	11
	4
	11
	7
	11
	7
	11
	17
	11
	7
	18
	2
	16
	2
	20
	2
	9
	2
	16
	2
	16
	2
	16
	2
	16
	2
	16
	2
	16
	2
	20
	21
	20
	5
	8
	12
	3
	0
	3
	18
	8
	15
	16
	21
	24
	21
	24
	5
	24
	21
	20
	21
	23
	5
	24
	5
	20
	5
	16
	5
	8
	0
	4
	21
	23
	22
	20
	22
	24
	1
	4
	0
	3
	1
	0
	4
	13
	8
	12
	17
	11
	19
	12
	17
	13
	19
	18
	17
	1
	24
	21
	10
	15
	23
	21
	9
	15
	20
	21
	9
	1
	23
	21
	9
	1
	24
	5
	10
	1
	20
	22
	23
	6
	23
	21
	9
	15
	16
	5
	10
	15
	20
	15
	9
	15
	20
	21
	9
	15
	19
	18
	17
	13
	19
	18
	7
	13
	4
	18
	17
	11
	19
	14
	17
	13
	19
	14
	4
	13
	17
	12
	3
	13
	8
	14
	17
	1
	11
	4
	14
	17
	11
	17
	14
	8
	13
	4
	18
	8
	11
	7
	18
	1
	11
	4
	14
	8
	13
	4
	18
	6
	20
	22
	9
	1
	24
	21
	9
	15
	23
	21
	10
	15
	23
	22
	9
	6
	24
	21
	9
	15
	20
	2
	9
	6
	24
	21
	10
	15
	23
	22
	10
	6
	24
	5
	20
